c Random generated cnf formula, satisfiable: true
p cnf 10 50
-1 -3 2 0
-4 5 -10 0
6 -4 -5 0
7 -4 -3 0
-8 -9 -7 0
4 5 3 0
-5 7 -1 0
2 -5 -1 0
6 4 -8 0
4 9 10 0
-8 -4 6 0
-1 -2 -8 0
5 10 3 0
-8 2 10 0
-2 5 -10 0
7 6 10 0
2 -8 -10 0
-2 -5 -8 0
-10 2 -6 0
-8 4 -9 0
7 -10 5 0
-4 -6 2 0
-7 -5 2 0
4 7 10 0
-5 1 7 0
-5 -2 -8 0
-4 -3 1 0
-5 -2 -8 0
4 8 9 0
-3 -7 -1 0
9 -4 -2 0
-5 4 -1 0
10 -1 -7 0
5 10 -6 0
-2 4 -10 0
-5 -7 2 0
-9 -6 5 0
-2 5 -3 0
7 -5 4 0
-6 5 -3 0
-6 10 -8 0
4 -1 -8 0
5 -10 -6 0
-1 4 9 0
9 8 7 0
9 -5 3 0
-9 4 -6 0
-5 10 -4 0
-1 -4 9 0
9 -1 10 0
